(set-logic NRA)
(set-info :source | Produced by Alexander Wiegel |)
(set-info :smt-lib-version 2.0)
(declare-fun x1 () Real)
(declare-fun x2 () Real)
(declare-fun x3 () Real)
(declare-fun x4 () Real)
(declare-fun x5 () Real)
(declare-fun x6 () Real)
(declare-fun x7 () Real)
(declare-fun x8 () Real)
(declare-fun x9 () Real)
(declare-fun x10 () Real)
(assert (and (>= x1 0.5) (>= x2 0.5) (>= x3 0.5) (>= x4 0.5) (>= x5 0.5) (>= x6 0.5) (>= x7 0.5) (>= x8 0.5) (>= x9 0.5) (>= x10 0.5)))
(check-sat)
